50
    1   325   369
    2   120    93
    3   157   171
    4   356   396
    5   119   141
    6   539   563
    7   310   318
    8   262   317
    9    72    70
   10   297   307
   11     1    37
   12   523   484
   13   383   413
   14   119   173
   15   297   270
   16   217   270
   17   366   398
   18   410   457
   19   356   298
   20   125    95
   21   292   326
   22   139   129
   23   210   173
   24    45    72
   25   403   366
   26   435   481
   27   222   203
   28   526   561
   29   210   223
   30   526   512
   31   505   523
   32   524   533
   33   340   357
   34   461   438
   35   123   117
   36   347   386
   37   518   557
   38   451   430
   39   434   445
   40    61   112
   41   388   328
   42   519   539
   43   556   535
   44   457   503
   45    39    96
   46   413   428
   47   125   147
   48   493   499
   49   295   328
   50    24    17
601
